(declare-const |K:21| Int)
(declare-const |a':19| Int)
(assert (and (or (not (<= (- |K:21|) 0)) (<= (+ |a':19| (* -2 |K:21|)) 0))
               (or (not (<= (- |K:21|) 0)) (<= (+ (- |a':19|) |K:21|) 0))
               (or (and (= |K:21| 0) (= (- |a':19|) 0))
                     (and (<= (+ (- |K:21|) 1) 0) (<= (+ |a':19| -6) 0)
                            (<= (+ (- |a':19|) 1) 0))) (<= (- |K:21|) 0)
               (<= (- |a':19|) 0) (<= (+ (- |a':19|) 5) 0)))
(check-sat)
